* ENCODING=ISO-8859-1
NAME          CPLEX
ROWS
 N  obj1    
 G  c1      
 G  c2      
 G  c3      
 G  c4      
 G  c5      
 G  c6      
 G  c7      
 G  c8      
 G  c9      
 G  c10     
 G  c11     
 G  c12     
 G  c13     
 G  c14     
 G  c15     
 G  c16     
 G  c17     
 G  c18     
 G  c19     
 G  c20     
 G  c21     
 G  c22     
 G  c23     
 G  c24     
 G  c25     
 G  c26     
 G  c27     
 G  c28     
 G  c29     
 G  c30     
 G  c31     
 G  c32     
 G  c33     
 G  c34     
 G  c35     
 G  c36     
 G  c37     
 G  c38     
 G  c39     
 G  c40     
 G  c41     
 G  c42     
 G  c43     
 G  c44     
 G  c45     
 G  c46     
 G  c47     
 G  c48     
 G  c49     
 G  c50     
 G  c51     
 G  c52     
 G  c53     
 G  c54     
 G  c55     
 G  c56     
 G  c57     
 G  c58     
 G  c59     
 G  c60     
 G  c61     
 G  c62     
 G  c63     
 G  c64     
 G  c65     
 G  c66     
 G  c67     
 G  c68     
 G  c69     
 G  c70     
COLUMNS
    MARK0000  'MARKER'                 'INTORG'
    x1        obj1                            1
    x1        c14                           879
    x1        c18                           916
    x1        c19                           395
    x1        c29                           703
    x1        c52                           972
    x1        c69                           977
    x2        obj1                            1
    x2        c1                            297
    x2        c10                           555
    x2        c16                           962
    x2        c29                           616
    x2        c37                           750
    x2        c40                           778
    x2        c45                           402
    x2        c48                           831
    x2        c59                           591
    x3        obj1                            1
    x3        c8                            746
    x3        c21                           718
    x3        c23                           333
    x3        c30                           512
    x3        c32                           437
    x3        c40                           386
    x3        c46                           788
    x3        c48                           935
    x3        c63                           643
    x4        obj1                            1
    x4        c2                            628
    x4        c5                            289
    x4        c9                            154
    x4        c11                           619
    x4        c15                           357
    x4        c16                           832
    x4        c17                           328
    x4        c33                           596
    x4        c58                           988
    x5        obj1                            1
    x5        c2                            898
    x5        c8                            578
    x5        c59                           732
    x6        obj1                            1
    x6        c17                           932
    x6        c19                           403
    x6        c25                           426
    x6        c35                           926
    x6        c55                           858
    x7        obj1                            1
    x7        c7                            350
    x7        c11                           443
    x7        c15                           388
    x7        c17                           737
    x7        c21                           459
    x7        c25                           785
    x7        c31                           184
    x7        c36                           706
    x7        c37                           686
    x7        c40                           992
    x7        c57                           945
    x7        c68                           178
    x8        obj1                            1
    x8        c8                            165
    x8        c11                           933
    x8        c25                           232
    x8        c29                           547
    x8        c43                           483
    x8        c53                           648
    x8        c62                           114
    x9        obj1                            1
    x9        c4                            456
    x9        c5                            472
    x9        c14                           877
    x9        c15                           337
    x9        c30                           985
    x9        c41                           360
    x9        c54                           152
    x9        c56                           251
    x10       obj1                            1
    x10       c11                           845
    x10       c14                           802
    x10       c42                           166
    x10       c45                           733
    x10       c46                           644
    x10       c48                           538
    x10       c59                           509
    x10       c61                           233
    x11       obj1                            1
    x11       c7                            278
    x11       c12                           299
    x11       c20                           186
    x11       c21                           474
    x11       c30                           666
    x11       c32                           484
    x11       c41                           222
    x11       c62                           218
    x12       obj1                            1
    x12       c2                            511
    x12       c17                           829
    x12       c30                           196
    x12       c45                           881
    x12       c65                           292
    x13       obj1                            1
    x13       c7                            414
    x13       c13                           168
    x13       c16                           621
    x13       c22                           543
    x13       c33                           106
    x13       c37                           767
    x13       c47                           519
    x13       c48                           259
    x14       obj1                            1
    x14       c9                            686
    x14       c10                           889
    x14       c19                           720
    x14       c22                           521
    x14       c23                           771
    x14       c26                           279
    x14       c28                           523
    x14       c30                           862
    x14       c33                           529
    x14       c34                           452
    x14       c39                           391
    x14       c62                           417
    x14       c68                           295
    x15       obj1                            1
    x15       c6                            354
    x15       c30                           743
    x15       c34                           442
    x15       c44                           107
    x15       c58                           702
    x15       c69                           996
    x16       obj1                            1
    x16       c32                           285
    x16       c68                           743
    x16       c69                           778
    x17       obj1                            1
    x17       c9                            634
    x17       c12                           168
    x17       c16                           408
    x17       c23                           328
    x17       c26                           825
    x17       c27                           686
    x17       c29                           557
    x17       c49                           167
    x17       c50                           585
    x17       c60                           420
    x17       c67                           352
    x18       obj1                            1
    x18       c4                            750
    x18       c13                           740
    x18       c31                           776
    x18       c41                           703
    x18       c42                           645
    x18       c50                           345
    x18       c57                           109
    x18       c62                           116
    x19       obj1                            1
    x19       c1                            703
    x19       c9                            250
    x19       c70                           650
    x20       obj1                            1
    x20       c3                            238
    x20       c14                           417
    x20       c25                           921
    x20       c38                           580
    x20       c65                           134
    x21       obj1                            1
    x21       c7                            652
    x21       c9                            381
    x21       c26                           993
    x21       c31                           667
    x21       c45                           267
    x21       c47                           608
    x21       c62                           401
    x22       obj1                            1
    x22       c22                           213
    x22       c31                           631
    x22       c33                           895
    x22       c52                           185
    x22       c54                           258
    x22       c61                           363
    x22       c70                           755
    x23       obj1                            1
    x23       c3                            922
    x23       c27                           111
    x23       c32                           399
    x23       c37                           785
    x23       c45                           120
    x23       c54                           168
    x24       obj1                            1
    x24       c13                           471
    x24       c21                           383
    x24       c24                           722
    x24       c25                           836
    x24       c33                           906
    x24       c39                           725
    x24       c43                           355
    x24       c53                           514
    x24       c65                           797
    x24       c68                           200
    x24       c69                           285
    x25       obj1                            1
    x25       c9                            477
    x25       c15                           520
    x25       c17                           557
    x25       c22                           466
    x25       c24                           558
    x26       obj1                            1
    x26       c3                            162
    x26       c10                           946
    x26       c13                           577
    x26       c25                           949
    x26       c33                           255
    x26       c38                           960
    x26       c40                           656
    x26       c51                           956
    x26       c62                           988
    x27       obj1                            1
    x27       c2                            391
    x27       c19                           889
    x27       c32                           800
    x27       c67                           947
    x28       obj1                            1
    x28       c18                           291
    x28       c26                           814
    x28       c27                           519
    x28       c62                           231
    x28       c64                           850
    x28       c65                           361
    x29       obj1                            1
    x29       c1                            213
    x29       c19                           480
    x29       c25                           826
    x29       c35                           292
    x30       obj1                            1
    x30       c8                            136
    x30       c9                            555
    x30       c18                           856
    x30       c19                           306
    x30       c25                           958
    x30       c35                           265
    x30       c43                           276
    x30       c55                           212
    x31       obj1                            1
    x31       c5                            343
    x31       c17                           908
    x31       c37                           244
    x31       c38                           685
    x31       c45                           434
    x31       c46                           915
    x31       c63                           655
    x31       c65                           916
    x31       c67                           605
    x31       c68                           374
    x32       obj1                            1
    x32       c13                           233
    x32       c24                           869
    x32       c47                           408
    x32       c64                           390
    x32       c66                           838
    x33       obj1                            1
    x33       c4                            907
    x33       c25                           417
    x33       c27                           796
    x33       c32                           243
    x33       c36                           719
    x33       c40                           411
    x34       obj1                            1
    x34       c12                           421
    x34       c23                           754
    x34       c37                           339
    x34       c38                           435
    x34       c44                           409
    x34       c48                           521
    x34       c52                           598
    x34       c56                           251
    x34       c60                           915
    x35       obj1                            1
    x35       c4                            755
    x35       c26                           741
    x35       c31                           856
    x35       c32                           109
    x35       c33                           883
    x35       c38                           437
    x35       c60                           795
    x35       c64                           454
    x36       obj1                            1
    x36       c8                            773
    x36       c15                           880
    x36       c24                           357
    x36       c64                           781
    x36       c67                           906
    x36       c70                           682
    x37       obj1                            1
    x37       c9                            429
    x37       c17                           780
    x37       c20                           538
    x37       c32                           404
    x37       c49                           487
    x37       c53                           151
    x37       c59                           423
    x37       c70                           307
    x38       obj1                            1
    x38       c8                            871
    x38       c15                           327
    x38       c23                           324
    x38       c24                           381
    x38       c34                           730
    x38       c52                           708
    x38       c54                           638
    x38       c56                           293
    x38       c70                           811
    x39       obj1                            1
    x39       c21                           868
    x39       c27                           844
    x39       c29                           975
    x39       c44                           193
    x39       c50                           327
    x39       c54                           628
    x40       obj1                            1
    x40       c28                           264
    x40       c35                           338
    x40       c64                           160
    x40       c66                           896
    x41       obj1                            1
    x41       c14                           393
    x41       c18                           518
    x41       c27                           512
    x41       c40                           824
    x41       c43                           991
    x41       c48                           327
    x42       obj1                            1
    x42       c2                            291
    x42       c27                           294
    x42       c39                           171
    x42       c63                           802
    x43       obj1                            1
    x43       c20                           205
    x43       c21                           626
    x43       c26                           953
    x43       c30                           134
    x43       c31                           869
    x43       c44                           676
    x43       c50                           693
    x44       obj1                            1
    x44       c1                            172
    x44       c2                            214
    x44       c20                           731
    x44       c27                           921
    x44       c36                           473
    x44       c60                           741
    x44       c68                           206
    x45       obj1                            1
    x45       c6                            454
    x45       c8                            427
    x45       c12                           847
    x45       c15                           768
    x45       c21                           117
    x45       c36                           967
    x45       c50                           659
    x45       c51                           697
    x46       obj1                            1
    x46       c1                            672
    x46       c8                            450
    x46       c43                           487
    x46       c57                           503
    x46       c58                           584
    x47       obj1                            1
    x47       c17                           930
    x47       c31                           118
    x47       c43                           188
    x47       c45                           588
    x47       c57                           309
    x48       obj1                            1
    x48       c2                            749
    x48       c6                            791
    x48       c7                            730
    x48       c26                           824
    x48       c35                           181
    x48       c55                           428
    x48       c58                           121
    x49       obj1                            1
    x49       c6                            593
    x49       c7                            502
    x49       c9                            777
    x49       c10                           373
    x49       c13                           226
    x49       c35                           258
    x49       c42                           423
    x49       c45                           696
    x49       c53                           571
    x49       c54                           705
    x49       c65                           627
    x50       obj1                            1
    x50       c12                           213
    x50       c22                           912
    x50       c28                           886
    x50       c55                           502
    x50       c58                           318
    x50       c65                           445
    x51       obj1                            1
    x51       c4                            837
    x51       c28                           942
    x51       c35                           619
    x51       c38                           463
    x51       c42                           185
    x51       c62                           711
    x51       c67                           273
    x52       obj1                            1
    x52       c2                            176
    x52       c33                           114
    x52       c39                           983
    x52       c41                           701
    x52       c47                           782
    x52       c50                           401
    x52       c57                           337
    x53       obj1                            1
    x53       c3                            271
    x53       c12                           517
    x53       c45                           967
    x53       c51                           116
    x53       c54                           267
    x53       c61                           307
    x53       c67                           580
    x54       obj1                            1
    x54       c10                           857
    x54       c13                           211
    x54       c18                           797
    x54       c24                           979
    x54       c41                           762
    x55       obj1                            1
    x55       c27                           253
    x55       c38                           754
    x55       c56                           861
    x55       c70                           446
    x56       obj1                            1
    x56       c6                            202
    x56       c7                            798
    x56       c30                           359
    x56       c37                           157
    x56       c42                           898
    x56       c48                           163
    x56       c49                           929
    x56       c66                           152
    x57       obj1                            1
    x57       c29                           579
    x57       c32                           709
    x57       c48                           215
    x57       c57                           950
    x57       c58                           163
    x57       c70                           528
    x58       obj1                            1
    x58       c10                           452
    x58       c27                           255
    x58       c29                           795
    x59       obj1                            1
    x59       c18                           484
    x59       c19                           371
    x59       c28                           408
    x59       c32                           909
    x59       c36                           241
    x59       c46                           655
    x59       c48                           145
    x59       c50                           557
    x59       c61                           144
    x60       obj1                            1
    x60       c8                            984
    x60       c18                           138
    x60       c22                           728
    x60       c33                           424
    x60       c34                           246
    x60       c41                           190
    x60       c47                           386
    x60       c49                           319
    x60       c61                           873
    x61       obj1                            1
    x61       c10                           890
    x61       c12                           246
    x61       c21                           412
    x61       c31                           179
    x61       c41                           279
    x61       c43                           770
    x61       c54                           857
    x61       c70                           617
    x62       obj1                            1
    x62       c7                            682
    x62       c10                           167
    x62       c25                           683
    x62       c34                           607
    x62       c63                           696
    x63       obj1                            1
    x63       c6                            147
    x63       c20                           753
    x63       c33                           291
    x63       c42                           206
    x63       c52                           119
    x63       c65                           897
    x63       c66                           524
    x64       obj1                            1
    x64       c5                            121
    x64       c18                           260
    x64       c19                           606
    x64       c36                           130
    x64       c38                           209
    x64       c43                           969
    x64       c54                           905
    x64       c70                           867
    x65       obj1                            1
    x65       c2                            801
    x65       c38                           795
    x65       c54                           408
    x65       c57                           399
    x65       c62                           742
    x66       obj1                            1
    x66       c3                            172
    x66       c13                           382
    x66       c18                           406
    x66       c23                           231
    x66       c26                           320
    x66       c34                           970
    x66       c40                           522
    x66       c45                           486
    x66       c55                           682
    x66       c60                           161
    x67       obj1                            1
    x67       c10                           829
    x67       c15                           318
    x67       c31                           471
    x67       c36                           675
    x67       c38                           934
    x67       c51                           821
    x67       c52                           720
    x68       obj1                            1
    x68       c13                           621
    x68       c57                           333
    x68       c62                           786
    x69       obj1                            1
    x69       c5                            727
    x69       c11                           120
    x69       c15                           745
    x69       c18                           617
    x69       c31                           157
    x69       c34                           310
    x69       c50                           811
    x70       obj1                            1
    x70       c9                            700
    x70       c12                           662
    x70       c15                           719
    x70       c40                           364
    x70       c44                           466
    x70       c50                           717
    x70       c58                           257
    MARK0001  'MARKER'                 'INTEND'
RHS
    rhs       c1                           1029
    rhs       c2                           2330
    rhs       c3                            883
    rhs       c4                           1853
    rhs       c5                            976
    rhs       c6                           1271
    rhs       c7                           2203
    rhs       c8                           2565
    rhs       c9                           2522
    rhs       c10                          2979
    rhs       c11                          1480
    rhs       c12                          1687
    rhs       c13                          1815
    rhs       c14                          1684
    rhs       c15                          2680
    rhs       c16                          1412
    rhs       c17                          3001
    rhs       c18                          2642
    rhs       c19                          2085
    rhs       c20                          1207
    rhs       c21                          2029
    rhs       c22                          1692
    rhs       c23                          1371
    rhs       c24                          1933
    rhs       c25                          3517
    rhs       c26                          2875
    rhs       c27                          2596
    rhs       c28                          1512
    rhs       c29                          2386
    rhs       c30                          2229
    rhs       c31                          2454
    rhs       c32                          2390
    rhs       c33                          2500
    rhs       c34                          1879
    rhs       c35                          1440
    rhs       c36                          1956
    rhs       c37                          1864
    rhs       c38                          3126
    rhs       c39                          1135
    rhs       c40                          2467
    rhs       c41                          1609
    rhs       c42                          1262
    rhs       c43                          2260
    rhs       c44                           926
    rhs       c45                          2787
    rhs       c46                          1501
    rhs       c47                          1352
    rhs       c48                          1967
    rhs       c49                           951
    rhs       c50                          2548
    rhs       c51                          1295
    rhs       c52                          1651
    rhs       c53                           942
    rhs       c54                          2493
    rhs       c55                          1341
    rhs       c56                           828
    rhs       c57                          1943
    rhs       c58                          1567
    rhs       c59                          1128
    rhs       c60                          1516
    rhs       c61                           960
    rhs       c62                          2362
    rhs       c63                          1398
    rhs       c64                          1318
    rhs       c65                          2235
    rhs       c66                          1205
    rhs       c67                          1832
    rhs       c68                           998
    rhs       c69                          1518
    rhs       c70                          2832
BOUNDS
 LI bnd       x1        0
 LI bnd       x2        0
 LI bnd       x3        0
 LI bnd       x4        0
 LI bnd       x5        0
 LI bnd       x6        0
 LI bnd       x7        0
 LI bnd       x8        0
 LI bnd       x9        0
 LI bnd       x10       0
 LI bnd       x11       0
 LI bnd       x12       0
 LI bnd       x13       0
 LI bnd       x14       0
 LI bnd       x15       0
 LI bnd       x16       0
 LI bnd       x17       0
 LI bnd       x18       0
 LI bnd       x19       0
 LI bnd       x20       0
 LI bnd       x21       0
 LI bnd       x22       0
 LI bnd       x23       0
 LI bnd       x24       0
 LI bnd       x25       0
 LI bnd       x26       0
 LI bnd       x27       0
 LI bnd       x28       0
 LI bnd       x29       0
 LI bnd       x30       0
 LI bnd       x31       0
 LI bnd       x32       0
 LI bnd       x33       0
 LI bnd       x34       0
 LI bnd       x35       0
 LI bnd       x36       0
 LI bnd       x37       0
 LI bnd       x38       0
 LI bnd       x39       0
 LI bnd       x40       0
 LI bnd       x41       0
 LI bnd       x42       0
 LI bnd       x43       0
 LI bnd       x44       0
 LI bnd       x45       0
 LI bnd       x46       0
 LI bnd       x47       0
 LI bnd       x48       0
 LI bnd       x49       0
 LI bnd       x50       0
 LI bnd       x51       0
 LI bnd       x52       0
 LI bnd       x53       0
 LI bnd       x54       0
 LI bnd       x55       0
 LI bnd       x56       0
 LI bnd       x57       0
 LI bnd       x58       0
 LI bnd       x59       0
 LI bnd       x60       0
 LI bnd       x61       0
 LI bnd       x62       0
 LI bnd       x63       0
 LI bnd       x64       0
 LI bnd       x65       0
 LI bnd       x66       0
 LI bnd       x67       0
 LI bnd       x68       0
 LI bnd       x69       0
 LI bnd       x70       0
ENDATA
